
































































































56 53 47 21 
13 65 38 5 3 
69 15 64 10 66 
4 48 46 41 42 
32 2 61 11 26 
29 20 18 24 37 
22 76 0 73 74 
43 55 62 45 39 
23 40 50 63 28 
1 16 60 34 
25 49 17 68 57 
9 71 27 7 
12 52 75 19 
36 54 51 14 
59 31 58 8 
30 72 6 70 
44 67 33 35 

